param set_len = 24;
param target_sum = 6817596589;
param values := [1] 748966944 [2] 843699836 [3] 793684206 [4] 845091217 [5] 802736639 [6] 51268458 [7] 485689282 [8] 89008452 [9] 250077737 [10] 208815445 [11] 185058415 [12] 413643882 [13] 766696839 [14] 56955589 [15] 430488814 [16] 880033476 [17] 1072233504 [18] 350783744 [19] 572255681 [20] 274852038 [21] 760154457 [22] 558322951 [23] 878105687 [24] 918688128 ;
